============================[ Problem Statistics ]=============================|                                                                             ||  Number of variables:          4242                                         ||  Number of clauses:           10480                                         ||  Parse time:                   0.85 s                                       ||                                                                             |============================[ Search Statistics ]==============================| Conflicts |          ORIGINAL         |          LEARNT          | Progress ||           |    Vars  Clauses Literals |    Limit  Clauses Lit/Cl |          |===============================================================================|       100 |    1591     6685  1383236 |     2451      100     53 | 62.501 % ||       250 |    1591     6685  1383236 |     2696      250     75 | 62.495 % |===============================================================================restarts              : 4conflicts             : 466            (362 /sec)decisions             : 827            (0.00 % random) (642 /sec)propagations          : 13779          (10690 /sec)conflict literals     : 39683          (94.44 % deleted)CPU time              : 1.289 sSATISFIABLE